p cnf 199 829
-1 -33 0
-2 -33 0
1 2 33 0
1 2 -34 0
-1 -2 -34 0
-1 2 34 0
1 -2 34 0
33 -35 0
-3 -35 0
3 -33 35 0
3 -33 -36 0
-3 33 -36 0
3 33 36 0
-3 -33 36 0
35 -37 0
-4 -37 0
4 -35 37 0
4 -35 -38 0
-4 35 -38 0
4 35 38 0
-4 -35 38 0
37 -39 0
-5 -39 0
5 -37 39 0
5 -37 -40 0
-5 37 -40 0
5 37 40 0
-5 -37 40 0
39 -41 0
-6 -41 0
6 -39 41 0
6 -39 -42 0
-6 39 -42 0
6 39 42 0
-6 -39 42 0
41 -43 0
-7 -43 0
7 -41 43 0
7 -41 -44 0
-7 41 -44 0
7 41 44 0
-7 -41 44 0
43 -45 0
-8 -45 0
8 -43 45 0
8 -43 -46 0
-8 43 -46 0
8 43 46 0
-8 -43 46 0
3 -47 0
1 -47 0
-1 -3 47 0
-1 -3 -48 0
1 3 -48 0
1 -3 48 0
-1 3 48 0
-2 -4 49 0
-4 -47 49 0
-2 -47 49 0
2 4 -49 0
4 47 -49 0
2 47 -49 0
4 -49 -50 0
2 -49 -50 0
47 -49 -50 0
-4 49 50 0
-2 49 50 0
-47 49 50 0
-2 -4 -47 50 0
2 4 47 -50 0
-3 -5 51 0
-5 -49 51 0
-3 -49 51 0
3 5 -51 0
5 49 -51 0
3 49 -51 0
5 -51 -52 0
3 -51 -52 0
49 -51 -52 0
-5 51 52 0
-3 51 52 0
-49 51 52 0
-3 -5 -49 52 0
3 5 49 -52 0
-4 -6 53 0
-6 -51 53 0
-4 -51 53 0
4 6 -53 0
6 51 -53 0
4 51 -53 0
6 -53 -54 0
4 -53 -54 0
51 -53 -54 0
-6 53 54 0
-4 53 54 0
-51 53 54 0
-4 -6 -51 54 0
4 6 51 -54 0
-5 -7 55 0
-7 -53 55 0
-5 -53 55 0
5 7 -55 0
7 53 -55 0
5 53 -55 0
7 -55 -56 0
5 -55 -56 0
53 -55 -56 0
-7 55 56 0
-5 55 56 0
-53 55 56 0
-5 -7 -53 56 0
5 7 53 -56 0
-6 -8 57 0
-8 -55 57 0
-6 -55 57 0
6 8 -57 0
8 55 -57 0
6 55 -57 0
8 -57 -58 0
6 -57 -58 0
55 -57 -58 0
-8 57 58 0
-6 57 58 0
-55 57 58 0
-6 -8 -55 58 0
6 8 55 -58 0
7 -59 0
57 -59 0
-7 -57 59 0
-7 -57 -60 0
7 57 -60 0
-7 57 60 0
7 -57 60 0
8 -61 0
59 -61 0
-8 -59 61 0
-8 -59 -62 0
8 59 -62 0
-8 59 62 0
8 -59 62 0
52 -63 0
1 -63 0
-1 -52 63 0
-1 -52 -64 0
1 52 -64 0
1 -52 64 0
-1 52 64 0
-2 -54 65 0
-54 -63 65 0
-2 -63 65 0
2 54 -65 0
54 63 -65 0
2 63 -65 0
54 -65 -66 0
2 -65 -66 0
63 -65 -66 0
-54 65 66 0
-2 65 66 0
-63 65 66 0
-2 -54 -63 66 0
2 54 63 -66 0
-3 -56 67 0
-56 -65 67 0
-3 -65 67 0
3 56 -67 0
56 65 -67 0
3 65 -67 0
56 -67 -68 0
3 -67 -68 0
65 -67 -68 0
-56 67 68 0
-3 67 68 0
-65 67 68 0
-3 -56 -65 68 0
3 56 65 -68 0
-4 -58 69 0
-58 -67 69 0
-4 -67 69 0
4 58 -69 0
58 67 -69 0
4 67 -69 0
58 -69 -70 0
4 -69 -70 0
67 -69 -70 0
-58 69 70 0
-4 69 70 0
-67 69 70 0
-4 -58 -67 70 0
4 58 67 -70 0
-5 -60 71 0
-60 -69 71 0
-5 -69 71 0
5 60 -71 0
60 69 -71 0
5 69 -71 0
60 -71 -72 0
5 -71 -72 0
69 -71 -72 0
-60 71 72 0
-5 71 72 0
-69 71 72 0
-5 -60 -69 72 0
5 60 69 -72 0
-6 -62 73 0
-62 -71 73 0
-6 -71 73 0
6 62 -73 0
62 71 -73 0
6 71 -73 0
62 -73 -74 0
6 -73 -74 0
71 -73 -74 0
-62 73 74 0
-6 73 74 0
-71 73 74 0
-6 -62 -71 74 0
6 62 71 -74 0
-7 -61 75 0
-61 -73 75 0
-7 -73 75 0
7 61 -75 0
61 73 -75 0
7 73 -75 0
61 -75 -76 0
7 -75 -76 0
73 -75 -76 0
-61 75 76 0
-7 75 76 0
-73 75 76 0
-7 -61 -73 76 0
7 61 73 -76 0
8 -77 0
75 -77 0
-8 -75 77 0
-8 -75 -78 0
8 75 -78 0
-8 75 78 0
8 -75 78 0
66 -79 0
1 -79 0
-1 -66 79 0
-1 -66 -80 0
1 66 -80 0
1 -66 80 0
-1 66 80 0
-2 -68 81 0
-68 -79 81 0
-2 -79 81 0
2 68 -81 0
68 79 -81 0
2 79 -81 0
68 -81 -82 0
2 -81 -82 0
79 -81 -82 0
-68 81 82 0
-2 81 82 0
-79 81 82 0
-2 -68 -79 82 0
2 68 79 -82 0
-3 -70 83 0
-70 -81 83 0
-3 -81 83 0
3 70 -83 0
70 81 -83 0
3 81 -83 0
70 -83 -84 0
3 -83 -84 0
81 -83 -84 0
-70 83 84 0
-3 83 84 0
-81 83 84 0
-3 -70 -81 84 0
3 70 81 -84 0
-4 -72 85 0
-72 -83 85 0
-4 -83 85 0
4 72 -85 0
72 83 -85 0
4 83 -85 0
72 -85 -86 0
4 -85 -86 0
83 -85 -86 0
-72 85 86 0
-4 85 86 0
-83 85 86 0
-4 -72 -83 86 0
4 72 83 -86 0
-5 -74 87 0
-74 -85 87 0
-5 -85 87 0
5 74 -87 0
74 85 -87 0
5 85 -87 0
74 -87 -88 0
5 -87 -88 0
85 -87 -88 0
-74 87 88 0
-5 87 88 0
-85 87 88 0
-5 -74 -85 88 0
5 74 85 -88 0
-6 -76 89 0
-76 -87 89 0
-6 -87 89 0
6 76 -89 0
76 87 -89 0
6 87 -89 0
76 -89 -90 0
6 -89 -90 0
87 -89 -90 0
-76 89 90 0
-6 89 90 0
-87 89 90 0
-6 -76 -87 90 0
6 76 87 -90 0
-7 -78 91 0
-78 -89 91 0
-7 -89 91 0
7 78 -91 0
78 89 -91 0
7 89 -91 0
78 -91 -92 0
7 -91 -92 0
89 -91 -92 0
-78 91 92 0
-7 91 92 0
-89 91 92 0
-7 -78 -89 92 0
7 78 89 -92 0
-8 -77 93 0
-77 -91 93 0
-8 -91 93 0
8 77 -93 0
77 91 -93 0
8 91 -93 0
77 -93 -94 0
8 -93 -94 0
91 -93 -94 0
-77 93 94 0
-8 93 94 0
-91 93 94 0
-8 -77 -91 94 0
8 77 91 -94 0
-1 -95 0
-2 -95 0
1 2 95 0
1 2 -96 0
-1 -2 -96 0
-1 2 96 0
1 -2 96 0
95 -97 0
-48 -97 0
48 -95 97 0
48 -95 -98 0
-48 95 -98 0
48 95 98 0
-48 -95 98 0
97 -99 0
-50 -99 0
50 -97 99 0
50 -97 -100 0
-50 97 -100 0
50 97 100 0
-50 -97 100 0
99 -101 0
-64 -101 0
64 -99 101 0
64 -99 -102 0
-64 99 -102 0
64 99 102 0
-64 -99 102 0
101 -103 0
-80 -103 0
80 -101 103 0
80 -101 -104 0
-80 101 -104 0
80 101 104 0
-80 -101 104 0
103 -105 0
-82 -105 0
82 -103 105 0
82 -103 -106 0
-82 103 -106 0
82 103 106 0
-82 -103 106 0
105 -107 0
-84 -107 0
84 -105 107 0
84 -105 -108 0
-84 105 -108 0
84 105 108 0
-84 -105 108 0
107 -109 0
-86 -109 0
86 -107 109 0
86 -107 -110 0
-86 107 -110 0
86 107 110 0
-86 -107 110 0
109 -111 0
-88 -111 0
88 -109 111 0
88 -109 -112 0
-88 109 -112 0
88 109 112 0
-88 -109 112 0
111 -113 0
-90 -113 0
90 -111 113 0
90 -111 -114 0
-90 111 -114 0
90 111 114 0
-90 -111 114 0
113 -115 0
-92 -115 0
92 -113 115 0
92 -113 -116 0
-92 113 -116 0
92 113 116 0
-92 -113 116 0
115 -117 0
-94 -117 0
94 -115 117 0
94 -115 -118 0
-94 115 -118 0
94 115 118 0
-94 -115 118 0
117 -119 0
-93 -119 0
93 -117 119 0
93 -117 -120 0
-93 117 -120 0
93 117 120 0
-93 -117 120 0
-9 -121 0
-10 -121 0
9 10 121 0
9 10 -122 0
-9 -10 -122 0
-9 10 122 0
9 -10 122 0
121 -123 0
-11 -123 0
11 -121 123 0
11 -121 -124 0
-11 121 -124 0
11 121 124 0
-11 -121 124 0
123 -125 0
-12 -125 0
12 -123 125 0
12 -123 -126 0
-12 123 -126 0
12 123 126 0
-12 -123 126 0
125 -127 0
-13 -127 0
13 -125 127 0
13 -125 -128 0
-13 125 -128 0
13 125 128 0
-13 -125 128 0
127 -129 0
-14 -129 0
14 -127 129 0
14 -127 -130 0
-14 127 -130 0
14 127 130 0
-14 -127 130 0
129 -131 0
-15 -131 0
15 -129 131 0
15 -129 -132 0
-15 129 -132 0
15 129 132 0
-15 -129 132 0
131 -133 0
-16 -133 0
16 -131 133 0
16 -131 -134 0
-16 131 -134 0
16 131 134 0
-16 -131 134 0
12 -135 0
9 -135 0
-9 -12 135 0
-9 -12 -136 0
9 12 -136 0
9 -12 136 0
-9 12 136 0
-10 -13 137 0
-13 -135 137 0
-10 -135 137 0
10 13 -137 0
13 135 -137 0
10 135 -137 0
13 -137 -138 0
10 -137 -138 0
135 -137 -138 0
-13 137 138 0
-10 137 138 0
-135 137 138 0
-10 -13 -135 138 0
10 13 135 -138 0
-11 -14 139 0
-14 -137 139 0
-11 -137 139 0
11 14 -139 0
14 137 -139 0
11 137 -139 0
14 -139 -140 0
11 -139 -140 0
137 -139 -140 0
-14 139 140 0
-11 139 140 0
-137 139 140 0
-11 -14 -137 140 0
11 14 137 -140 0
-12 -15 141 0
-15 -139 141 0
-12 -139 141 0
12 15 -141 0
15 139 -141 0
12 139 -141 0
15 -141 -142 0
12 -141 -142 0
139 -141 -142 0
-15 141 142 0
-12 141 142 0
-139 141 142 0
-12 -15 -139 142 0
12 15 139 -142 0
-13 -16 143 0
-16 -141 143 0
-13 -141 143 0
13 16 -143 0
16 141 -143 0
13 141 -143 0
16 -143 -144 0
13 -143 -144 0
141 -143 -144 0
-16 143 144 0
-13 143 144 0
-141 143 144 0
-13 -16 -141 144 0
13 16 141 -144 0
14 -145 0
143 -145 0
-14 -143 145 0
-14 -143 -146 0
14 143 -146 0
-14 143 146 0
14 -143 146 0
15 -147 0
145 -147 0
-15 -145 147 0
-15 -145 -148 0
15 145 -148 0
-15 145 148 0
15 -145 148 0
16 -149 0
147 -149 0
-16 -147 149 0
-16 -147 -150 0
16 147 -150 0
-16 147 150 0
16 -147 150 0
-9 -151 0
-10 -151 0
9 10 151 0
9 10 -152 0
-9 -10 -152 0
-9 10 152 0
9 -10 152 0
151 -153 0
-11 -153 0
11 -151 153 0
11 -151 -154 0
-11 151 -154 0
11 151 154 0
-11 -151 154 0
153 -155 0
-136 -155 0
136 -153 155 0
136 -153 -156 0
-136 153 -156 0
136 153 156 0
-136 -153 156 0
155 -157 0
-138 -157 0
138 -155 157 0
138 -155 -158 0
-138 155 -158 0
138 155 158 0
-138 -155 158 0
157 -159 0
-140 -159 0
140 -157 159 0
140 -157 -160 0
-140 157 -160 0
140 157 160 0
-140 -157 160 0
159 -161 0
-142 -161 0
142 -159 161 0
142 -159 -162 0
-142 159 -162 0
142 159 162 0
-142 -159 162 0
161 -163 0
-144 -163 0
144 -161 163 0
144 -161 -164 0
-144 161 -164 0
144 161 164 0
-144 -161 164 0
163 -165 0
-146 -165 0
146 -163 165 0
146 -163 -166 0
-146 163 -166 0
146 163 166 0
-146 -163 166 0
165 -167 0
-148 -167 0
148 -165 167 0
148 -165 -168 0
-148 165 -168 0
148 165 168 0
-148 -165 168 0
167 -169 0
-150 -169 0
150 -167 169 0
150 -167 -170 0
-150 167 -170 0
150 167 170 0
-150 -167 170 0
169 -171 0
-149 -171 0
149 -169 171 0
149 -169 -172 0
-149 169 -172 0
149 169 172 0
-149 -169 172 0
2 -173 0
9 -173 0
-2 -9 173 0
-2 -9 -174 0
2 9 -174 0
-2 9 174 0
2 -9 174 0
-10 -48 175 0
-48 -173 175 0
-10 -173 175 0
10 48 -175 0
48 173 -175 0
10 173 -175 0
48 -175 -176 0
10 -175 -176 0
173 -175 -176 0
-48 175 176 0
-10 175 176 0
-173 175 176 0
-10 -48 -173 176 0
10 48 173 -176 0
-11 -50 177 0
-50 -175 177 0
-11 -175 177 0
11 50 -177 0
50 175 -177 0
11 175 -177 0
50 -177 -178 0
11 -177 -178 0
175 -177 -178 0
-50 177 178 0
-11 177 178 0
-175 177 178 0
-11 -50 -175 178 0
11 50 175 -178 0
-64 -136 179 0
-64 -177 179 0
-136 -177 179 0
64 136 -179 0
64 177 -179 0
136 177 -179 0
64 -179 -180 0
136 -179 -180 0
177 -179 -180 0
-64 179 180 0
-136 179 180 0
-177 179 180 0
-64 -136 -177 180 0
64 136 177 -180 0
-80 -138 181 0
-80 -179 181 0
-138 -179 181 0
80 138 -181 0
80 179 -181 0
138 179 -181 0
80 -181 -182 0
138 -181 -182 0
179 -181 -182 0
-80 181 182 0
-138 181 182 0
-179 181 182 0
-80 -138 -179 182 0
80 138 179 -182 0
-82 -140 183 0
-82 -181 183 0
-140 -181 183 0
82 140 -183 0
82 181 -183 0
140 181 -183 0
82 -183 -184 0
140 -183 -184 0
181 -183 -184 0
-82 183 184 0
-140 183 184 0
-181 183 184 0
-82 -140 -181 184 0
82 140 181 -184 0
-84 -142 185 0
-84 -183 185 0
-142 -183 185 0
84 142 -185 0
84 183 -185 0
142 183 -185 0
84 -185 -186 0
142 -185 -186 0
183 -185 -186 0
-84 185 186 0
-142 185 186 0
-183 185 186 0
-84 -142 -183 186 0
84 142 183 -186 0
-86 -144 187 0
-86 -185 187 0
-144 -185 187 0
86 144 -187 0
86 185 -187 0
144 185 -187 0
86 -187 -188 0
144 -187 -188 0
185 -187 -188 0
-86 187 188 0
-144 187 188 0
-185 187 188 0
-86 -144 -185 188 0
86 144 185 -188 0
-88 -146 189 0
-88 -187 189 0
-146 -187 189 0
88 146 -189 0
88 187 -189 0
146 187 -189 0
88 -189 -190 0
146 -189 -190 0
187 -189 -190 0
-88 189 190 0
-146 189 190 0
-187 189 190 0
-88 -146 -187 190 0
88 146 187 -190 0
-90 -148 191 0
-90 -189 191 0
-148 -189 191 0
90 148 -191 0
90 189 -191 0
148 189 -191 0
90 -191 -192 0
148 -191 -192 0
189 -191 -192 0
-90 191 192 0
-148 191 192 0
-189 191 192 0
-90 -148 -189 192 0
90 148 189 -192 0
-92 -150 193 0
-92 -191 193 0
-150 -191 193 0
92 150 -193 0
92 191 -193 0
150 191 -193 0
92 -193 -194 0
150 -193 -194 0
191 -193 -194 0
-92 193 194 0
-150 193 194 0
-191 193 194 0
-92 -150 -191 194 0
92 150 191 -194 0
-94 -149 195 0
-94 -193 195 0
-149 -193 195 0
94 149 -195 0
94 193 -195 0
149 193 -195 0
94 -195 -196 0
149 -195 -196 0
193 -195 -196 0
-94 195 196 0
-149 195 196 0
-193 195 196 0
-94 -149 -193 196 0
94 149 193 -196 0
93 -197 0
195 -197 0
-93 -195 197 0
-93 -195 -198 0
93 195 -198 0
-93 195 198 0
93 -195 198 0
1 -199 0
-174 -199 0
176 -199 0
-178 -199 0
-180 -199 0
182 -199 0
184 -199 0
186 -199 0
-188 -199 0
-190 -199 0
-192 -199 0
-194 -199 0
-196 -199 0
-197 -199 0
-198 -199 0
-1 174 -176 178 180 -182 -184 -186 188 190 192 194 196 197 198 199 0
199 0
c main::$tmp::return_value_nondet_char!0@1#1 17 18 19 20 21 22 23 24
c symex::nondet1 9 10 11 12 13 14 15 16
c symex::nondet0 1 2 3 4 5 6 7 8
c main::$tmp::return_value_nondet_char$0!0@1#2 9 10 11 12 13 14 15 16
c __CPROVER_rounding_mode!0#1 FALSE FALSE FALSE FALSE FALSE FALSE FALSE FALSE FALSE FALSE FALSE FALSE FALSE FALSE FALSE FALSE FALSE FALSE FALSE FALSE FALSE FALSE FALSE FALSE FALSE FALSE FALSE FALSE FALSE FALSE FALSE FALSE
c main::$tmp::return_value_nondet_char$0!0@1#1 25 26 27 28 29 30 31 32
c __CPROVER_memory_leak#1 FALSE FALSE FALSE FALSE FALSE FALSE FALSE FALSE FALSE FALSE FALSE FALSE FALSE FALSE FALSE FALSE FALSE FALSE FALSE FALSE FALSE FALSE FALSE FALSE FALSE FALSE FALSE FALSE FALSE FALSE FALSE FALSE FALSE FALSE FALSE FALSE FALSE FALSE FALSE FALSE FALSE FALSE FALSE FALSE FALSE FALSE FALSE FALSE FALSE FALSE FALSE FALSE FALSE FALSE FALSE FALSE FALSE FALSE FALSE FALSE FALSE FALSE FALSE FALSE
c __CPROVER_max_malloc_size#1 FALSE FALSE FALSE FALSE FALSE FALSE FALSE FALSE FALSE FALSE FALSE FALSE FALSE FALSE FALSE FALSE FALSE FALSE FALSE FALSE FALSE FALSE FALSE FALSE FALSE FALSE FALSE FALSE FALSE FALSE FALSE FALSE FALSE FALSE FALSE FALSE FALSE FALSE FALSE FALSE FALSE FALSE FALSE FALSE FALSE FALSE FALSE FALSE FALSE FALSE FALSE FALSE FALSE FALSE FALSE TRUE FALSE FALSE FALSE FALSE FALSE FALSE FALSE FALSE
c __CPROVER_deallocated#1 FALSE FALSE FALSE FALSE FALSE FALSE FALSE FALSE FALSE FALSE FALSE FALSE FALSE FALSE FALSE FALSE FALSE FALSE FALSE FALSE FALSE FALSE FALSE FALSE FALSE FALSE FALSE FALSE FALSE FALSE FALSE FALSE FALSE FALSE FALSE FALSE FALSE FALSE FALSE FALSE FALSE FALSE FALSE FALSE FALSE FALSE FALSE FALSE FALSE FALSE FALSE FALSE FALSE FALSE FALSE FALSE FALSE FALSE FALSE FALSE FALSE FALSE FALSE FALSE
c main::$tmp::return_value_nondet_char!0@1#2 1 2 3 4 5 6 7 8
c __CPROVER_dead_object#1 FALSE FALSE FALSE FALSE FALSE FALSE FALSE FALSE FALSE FALSE FALSE FALSE FALSE FALSE FALSE FALSE FALSE FALSE FALSE FALSE FALSE FALSE FALSE FALSE FALSE FALSE FALSE FALSE FALSE FALSE FALSE FALSE FALSE FALSE FALSE FALSE FALSE FALSE FALSE FALSE FALSE FALSE FALSE FALSE FALSE FALSE FALSE FALSE FALSE FALSE FALSE FALSE FALSE FALSE FALSE FALSE FALSE FALSE FALSE FALSE FALSE FALSE FALSE FALSE
